DATASET = "thpack2";
INSTANCE = "063";

WIDTH = 233;
HEIGHT = 220;
LENGTH = 587;

NO_OF_SHAPES = 5;
size = [|
  82,76,59 |
  60,51,50 |
  104,66,61 |
  71,36,28 |
  89,77,26 |
|];

verticality = [|
  1,1,1 |
  1,1,1 |
  1,1,1 |
  0,1,1 |
  0,0,1 |
|];

box_count = [
  24,
  17,
  28,
  24,
  27,
];
